100 4122
760 1040 1066 1133 756 1101 885 1030 695 915 819 339 700 582 845 881 449 1002 561 1078 828 650 701 884 800 307 840 996 897 313 933 1077 342 877 1083 490 1142 776 157 1102 1091 649 375 1129 1098 428 702 916 1039 126 1081 1047 898 1017 1039 1025 1098 984 907 1034 262 1065 867 542 741 980 866 491 1068 857 952 986 800 1147 906 1122 703 684 754 467 861 1134 917 1115 439 980 716 695 1017 1138 909 888 484 1060 921 1110 1128 287 1082 1117 
357 750 799 947 353 872 505 731 294 546 422 66 298 201 454 499 117 681 186 825 433 254 299 503 400 54 447 671 521 56 572 823 67 494 835 140 968 374 14 875 851 253 81 938 866 106 300 548 748 9 830 762 522 708 747 721 866 651 535 738 39 797 481 173 338 644 480 141 804 469 600 654 400 981 534 921 301 284 351 127 474 949 549 905 112 644 313 294 707 958 537 509 137 788 555 894 936 47 832 908 
